1 2
2 2
3 2
4 2
5 1
6 2
7 1
8 1
9 1
10 1
11 2
12 1
13 2
14 2
15 2
16 2
17 1
18 2
19 2
20 1
21 2
22 2
23 2
24 1
25 2
26 1
27 1
28 2
29 1
30 2
31 1
32 1
33 1
34 1
35 1
36 1
37 1
38 2
39 2
40 1
41 1
42 2
43 1
44 2
45 1
46 2
47 2
48 1
49 1
50 2
51 1
52 2
53 1
54 1
55 1
56 1
57 2
58 2
59 1
60 2
61 2
62 1
63 1
64 1
65 1
66 2
67 1
68 2
69 1
70 1
71 1
72 2
73 2
74 1
75 1
76 1
77 1
78 2
79 1
80 2
81 2
82 2
83 1
84 2
85 2
86 1
87 2
88 2
89 1
90 2
91 1
92 1
93 2
94 2
95 1
96 2
97 2
98 2
99 1
100 2
101 2
102 1
103 1
104 2
105 1
106 1
107 2
108 2
109 2
110 1
111 1
112 2
113 2
114 1
115 2
116 2
117 2
118 1
119 1
120 1
121 2
122 2
123 2
124 2
125 1
126 1
127 2
128 1
129 1
130 2
131 1
132 2
133 1
134 1
135 1
136 2
137 2
138 1
139 1
140 1
141 1
142 2
143 1
144 2
145 2
146 2
147 1
148 1
149 1
150 1
151 1
152 1
153 1
154 2
155 2
156 1
157 1
158 2
159 1
160 1
161 2
162 2
163 1
164 1
165 1
166 2
167 2
168 2
169 2
170 2
171 1
172 1
173 1
174 1
175 1
176 2
177 2
178 1
179 2
180 1
181 1
182 2
183 2
184 1
185 2
186 2
187 1
188 1
189 1
190 1
191 1
192 1
193 2
194 2
195 1
196 2
197 2
198 1
199 1
200 1
201 2
202 2
203 1
204 1
205 1
206 2
207 1
208 1
209 1
210 2
211 2
212 1
213 1
214 2
215 2
216 1
217 1
218 1
219 2
220 1
221 1
222 2
223 1
224 1
225 2
226 1
227 2
228 2
229 1
230 2
231 1
232 1
233 2
234 1
235 2
236 2
237 2
238 2
239 2
240 1
241 1
242 1
243 2
244 2
245 1
246 2
247 1
248 1
249 1
250 2
251 2
252 1
253 2
254 1
255 2
256 2
257 2
258 1
259 2
260 2
261 1
262 2
263 1
264 2
265 1
266 2
267 1
268 1
269 2
270 2
271 1
272 2
273 2
274 2
275 1
276 1
277 1
278 2
279 1
280 2
281 2
282 2
283 1
284 1
285 1
286 2
287 1
288 1
289 1
290 2
291 2
292 1
293 2
294 2
295 2
296 2
297 1
298 1
299 1
300 2
301 1
302 2
303 2
304 2
305 1
306 2
307 2
308 2
309 1
310 2
311 2
312 2
313 1
314 1
315 1
316 1
317 2
318 1
319 2
320 2
321 1
322 1
323 1
324 2
325 1
326 2
327 2
328 1
329 1
330 1
331 1
332 2
333 2
334 1
335 1
336 2
337 1
338 2
339 1
340 1
341 2
342 2
343 1
344 2
345 1
346 1
347 1
348 1
349 1
350 1
351 2
352 2
353 1
354 2
355 2
356 1
357 1
358 1
359 2
360 1
361 1
362 2
363 1
364 2
365 1
366 1
367 2
368 1
369 1
370 1
371 1
372 1
373 1
374 1
375 1
376 2
377 2
378 1
379 2
380 1
381 2
382 2
383 2
384 1
385 2
386 2
387 1
388 1
389 1
390 1
391 1
392 1
393 1
394 1
395 2
396 2
397 2
398 1
399 1
400 1
401 1
402 2
403 2
404 2
405 1
406 1
407 1
408 1
409 1
410 1
411 2
412 2
413 1
414 2
415 1
416 1
417 1
418 2
419 1
420 1
421 1
422 2
423 2
424 2
425 1
426 2
427 1
428 2
429 1
430 2
431 2
432 1
433 1
434 1
435 2
436 1
437 1
438 2
439 1
440 1
441 1
442 1
443 2
444 2
445 2
446 1
447 1
448 2
449 1
450 1
451 2
452 2
453 1
454 2
455 2
456 1
457 2
458 2
459 1
460 1
461 2
462 2
463 1
464 2
465 2
466 1
467 1
468 2
469 2
470 1
471 2
472 1
473 2
474 1
475 1
476 1
477 1
478 2
479 2
480 1
481 1
482 1
483 2
484 2
485 2
486 2
487 2
488 1
489 1
490 2
491 1
492 2
493 1
494 2
495 2
496 2
497 2
498 2
499 1
500 1
501 2
502 1
503 2
504 2
505 1
506 1
507 2
508 1
509 1
510 2
511 1
512 1
513 2
514 2
515 1
516 2
517 2
518 2
519 2
520 2
521 2
522 1
523 1
524 1
525 1
526 2
527 2
528 2
529 1
530 2
531 2
532 2
533 1
534 2
535 2
536 1
537 1
538 2
539 1
540 2
541 1
542 2
543 2
544 2
545 2
546 1
547 2
548 1
549 1
550 1
551 2
552 1
553 2
554 1
555 1
556 2
557 2
558 2
559 1
560 1
561 1
562 1
563 1
564 2
565 1
566 2
567 1
568 1
569 1
570 2
571 2
572 2
573 1
574 2
575 2
576 1
577 1
578 2
579 1
580 2
581 1
582 1
583 1
584 1
585 1
586 2
587 1
588 2
589 1
590 1
591 1
592 2
593 2
594 2
595 2
596 2
597 2
598 2
599 2
600 1
601 2
602 1
603 2
604 2
605 2
606 2
607 1
608 1
609 2
610 2
611 2
612 2
613 2
614 1
615 1
616 2
617 1
618 1
619 1
620 1
621 2
622 1
623 2
624 2
625 2
626 2
627 2
628 2
629 2
630 1
631 1
632 2
633 1
634 2
635 1
636 1
637 2
638 1
639 2
640 2
641 1
642 1
643 2
644 1
645 2
646 2
647 1
648 2
649 1
650 1
651 2
652 1
653 1
654 1
655 2
656 1
657 1
658 2
659 2
660 1
661 2
662 1
663 2
664 1
665 2
666 2
667 2
668 1
669 1
670 1
671 2
672 1
673 2
674 1
675 1
676 2
677 1
678 1
679 2
680 2
681 1
682 2
683 2
684 2
685 1
686 1
687 1
688 1
689 2
690 1
691 2
692 1
693 1
694 1
695 2
696 2
697 1
698 2
699 1
700 2
701 2
702 2
703 1
704 1
705 2
706 2
707 2
708 1
709 1
710 1
711 1
712 2
713 2
714 2
715 2
716 2
717 1
718 1
719 2
720 2
721 2
722 2
723 2
724 1
725 1
726 1
727 1
728 1
729 1
730 1
731 1
732 2
733 1
734 1
735 1
736 2
737 2
738 2
739 1
740 2
741 1
742 1
743 2
744 1
745 2
746 2
747 2
748 1
749 1
750 2
751 1
752 2
753 2
754 2
755 1
756 2
757 2
758 1
759 2
760 2
761 2
762 2
763 1
764 2
765 1
766 1
767 2
768 2
769 1
770 1
771 1
772 1
773 1
774 1
775 2
776 2
777 2
778 2
779 2
780 1
781 2
782 1
783 1
784 1
785 1
786 1
787 2
788 1
789 2
790 2
791 2
792 2
793 1
794 1
795 1
796 2
797 2
798 2
799 1
800 2
